unsat
(:binary-propagations  13
 :conflicts            1
 :final-checks         1
 :max-generation       1
 :max-memory           23.78
 :memory               20.98
 :mk-bool-var          720
 :mk-clause            259
 :mk-clause-binary     1184
 :num-allocs           11560626
 :num-checks           1
 :propagations         13
 :quant-instantiations 189
 :restarts             1
 :rlimit-count         130069
 :time                 0.03)
